120
150
69
46
87
32
69
81
57
92
97
63
56
52
32
45
65
40
31
31
44
61
44
98
52
72
76
99
57
57
95
55
79
34
63
23
76
98
74
43
69
98
75
52
52
51
63
87
29
56
20
74
36
56
87
28
37
49
73
46
67
83
87
56
46
63
41
36
31
41
46
63
78
72
98
69
81
59
46
89
74
45
61
52
44
52
52
46
42
31
46
31
57
53
98
81
38
23
40
31
39
68
59
40
51
79
42
47
40
99
63
71
79
54
96
51
43
87
63
43
51
56
